c 
c G(k,n,p) graph
c graph gen seed     : 1023
c number of vertices : 25
c max number of edges: 500
c number of classes  : 2
c edge density       : 0.600000
c edge probability   : 1.200000
c data structure     : dense
c
c           Graph Stats
c number of vertices  : 25
c nonisolated vertices: 25
c number of edges     : 156
c edge density        : 0.520000
c max degree          : 13
c avg degree          : 12.48
c min degree          : 12
p col 25 156
e 1 5
e 1 6
e 1 9
e 1 10
e 1 11
e 1 13
e 1 14
e 1 15
e 1 17
e 1 18
e 1 22
e 1 23
e 1 24
e 2 5
e 2 6
e 2 9
e 2 10
e 2 11
e 2 13
e 2 14
e 2 15
e 2 17
e 2 18
e 2 22
e 2 23
e 2 24
e 3 5
e 3 6
e 3 9
e 3 10
e 3 11
e 3 13
e 3 14
e 3 15
e 3 17
e 3 18
e 3 22
e 3 23
e 3 24
e 4 5
e 4 6
e 4 9
e 4 10
e 4 11
e 4 13
e 4 14
e 4 15
e 4 17
e 4 18
e 4 22
e 4 23
e 4 24
e 5 7
e 5 8
e 5 12
e 5 16
e 5 19
e 5 20
e 5 21
e 5 25
e 6 7
e 6 8
e 6 12
e 6 16
e 6 19
e 6 20
e 6 21
e 6 25
e 7 9
e 7 10
e 7 11
e 7 13
e 7 14
e 7 15
e 7 17
e 7 18
e 7 22
e 7 23
e 7 24
e 8 9
e 8 10
e 8 11
e 8 13
e 8 14
e 8 15
e 8 17
e 8 18
e 8 22
e 8 23
e 8 24
e 9 12
e 9 16
e 9 19
e 9 20
e 9 21
e 9 25
e 10 12
e 10 16
e 10 19
e 10 20
e 10 21
e 10 25
e 11 12
e 11 16
e 11 19
e 11 20
e 11 21
e 11 25
e 12 13
e 12 14
e 12 15
e 12 17
e 12 18
e 12 22
e 12 23
e 12 24
e 13 16
e 13 19
e 13 20
e 13 21
e 13 25
e 14 16
e 14 19
e 14 20
e 14 21
e 14 25
e 15 16
e 15 19
e 15 20
e 15 21
e 15 25
e 16 17
e 16 18
e 16 22
e 16 23
e 16 24
e 17 19
e 17 20
e 17 21
e 17 25
e 18 19
e 18 20
e 18 21
e 18 25
e 19 22
e 19 23
e 19 24
e 20 22
e 20 23
e 20 24
e 21 22
e 21 23
e 21 24
e 22 25
e 23 25
e 24 25
